Linux optc-01-06 4.15.0-58-generic #64-Ubuntu SMP Tue Aug 6 11:12:41 UTC 2019 x86_64 x86_64 x86_64 GNU/Linux

top - 04:00:45 up 1 day, 18:01,  0 users,  load average: 0,40, 0,83, 0,92
Tasks: 289 gesamt,   1 laufend, 149 schlafend,   0 gestoppt,   0 Zombie
%CPU(s):  6,9 be,  0,4 sy,  0,0 ni, 92,8 un,  0,0 wa,  0,0 hi,  0,0 si,  0,0 st
KiB Spch : 97514992 gesamt, 94832152 frei,   651320 belegt,  2031524 Puff/Cache
KiB Swap:  8388604 gesamt,  8388604 frei,        0 belegt. 96121552 verfü Spch 

  PID USER      PR  NI    VIRT    RES    SHR S  %CPU %MEM     ZEIT+ BEFEHL
    1 root      20   0  233836   9424   6732 S   0,0  0,0   0:13.77 systemd
    2 root      20   0       0      0      0 S   0,0  0,0   0:00.15 kthreadd
    4 root       0 -20       0      0      0 I   0,0  0,0   0:00.00 kworker/0:+
    6 root      20   0       0      0      0 I   0,0  0,0   0:00.00 kworker/u3+
    7 root       0 -20       0      0      0 I   0,0  0,0   0:00.00 mm_percpu_+
    8 root      20   0       0      0      0 S   0,0  0,0   0:00.00 ksoftirqd/0
    9 root      20   0       0      0      0 I   0,0  0,0   0:16.21 rcu_sched
   10 root      20   0       0      0      0 I   0,0  0,0   0:00.00 rcu_bh

hard time limit: 04:10:00
hard mem limit: 55100

SLURM jobID: 2182947

@01 /nfs/optimi/kombadon/IP/miplib2003/stp3d.mps.gz ===========
-----------------------------
Fr 23. Aug 04:00:45 CEST 2019
-----------------------------
@03 1566525645
@05 7200
SCIP version 6.0.0 [precision: 8 byte] [memory: block] [mode: optimized] [LP solver: CPLEX 12.8.0.0] [GitHash: 41ab6e0014]
Copyright (C) 2002-2018 Konrad-Zuse-Zentrum fuer Informationstechnik Berlin (ZIB)

External codes: 
  Readline 7.0         GNU library for command line editing (gnu.org/s/readline)
  CPLEX 12.8.0.0       Linear Programming Solver developed by IBM (www.cplex.com)
  CppAD 20180000.0     Algorithmic Differentiation of C++ algorithms developed by B. Bell (www.coin-or.org/CppAD)
  ZLIB 1.2.11          General purpose compression library by J. Gailly and M. Adler (zlib.net)
  GMP 6.1.2            GNU Multiple Precision Arithmetic Library developed by T. Granlund (gmplib.org)
  bliss 0.73p          Computing Graph Automorphism Groups by T. Junttila and P. Kaski (http://www.tcs.hut.fi/Software/bliss/)

user parameter file <scip.set> not found - using default parameters

SCIP> 
SCIP> set load /home/optimi/bzfhende/opti/scip-opti/check/../settings/enable_treeeprofile.set
loaded parameter file </home/optimi/bzfhende/opti/scip-opti/check/../settings/enable_treeprofile.set>
SCIP> set misc referencevalue 4.9371965000e+02
misc/referencevalue = 493.71965
SCIP> set limits time 7200
limits/time = 7200
SCIP> set limits nodes 2100000000
limits/nodes = 2100000000
SCIP> set limits memory 50000
limits/memory = 50000
SCIP> set lp advanced threads 1
lp/threads = 1
SCIP> set timing clocktype 1
timing/clocktype = 1
SCIP> set display freq 10000
display/freq = 10000
SCIP> set memory savefac 1.0
memory/savefac = 1
SCIP> set save /home/optimi/bzfhende/opti/scip-opti/check/treesize.estimation.jouurnal.3/bzfhende.MMMc.483_stp3d.scip.M640.enable_treeprofile.set
saved parameter file </home/optimi/bzfhende/opti/scip-opti/check/treesize.estimation.journal.3/bzfhende.MMMc.483_stp3d.scip.M640.enable_treeprofile.set>
SCIP> read /nfs/optimi/kombadon/IP/miplib2003/stp3d.mps.gz

read problem </nfs/optimi/kombadon/IP/miplib2003/stp3d.mps.gz>
============

original problem has 204880 variables (204880 bin, 0 int, 0 impl, 0 cont) and 159488 constraints
SCIP> display parameters

number of parameters = 2448
non-default parameter settings:
display/freq = 10000
limits/time = 7200
limits/nodes = 2100000000
limits/memory = 50000
lp/threads = 1
memory/savefac = 1
misc/referencevalue = 493.71965
presolving/maxrestarts = 0
estimates/profile/enabled = TRUE
estimates/profile/maxdepthfactor = 10
estimates/profile/freq = 0

SCIP> optimize

Activating tree profile data collection
presolving:
(round 1, fast)       63401 del vars, 50882 del conss, 0 add conss, 15668 chg bounds, 0 chg sides, 0 chg coeffs, 0 upgd conss, 0 impls, 74126 clqs
(round 2, fast)       64256 del vars, 61136 del conss, 0 add conss, 15913 chg bounds, 0 chg sides, 0 chg coeffs, 0 upgd conss, 0 impls, 73907 clqs
(round 3, fast)       67683 del vars, 61489 del conss, 0 add conss, 15918 chg bounds, 0 chg sides, 0 chg coeffs, 0 upgd conss, 0 impls, 73720 clqs
(round 4, exhaustive) 69218 del vars, 62359 del conss, 0 add conss, 16470 chg bounds, 0 chg sides, 0 chg coeffs, 0 upgd conss, 0 impls, 72887 clqs
(round 5, fast)       69243 del vars, 62605 del conss, 0 add conss, 16470 chg bounds, 0 chg sides, 0 chg coeffs, 0 upgd conss, 0 impls, 72887 clqs
(round 6, exhaustive) 69347 del vars, 62615 del conss, 0 add conss, 16470 chg bounds, 0 chg sides, 0 chg coeffs, 72877 upgd conss, 0 impls, 72877 clqs
presolving (7 rounds: 7 fast, 3 medium, 3 exhaustive):
 69386 deleted vars, 62628 deleted constraints, 0 added constraints, 16470 tightened bounds, 0 added holes, 0 changed sides, 0 changed coefficients
 0 implications, 281887 cliques
presolved problem has 136042 variables (136042 bin, 0 int, 0 impl, 0 cont) and 96860 constraints
  72864 constraints of type <setppc>
  23996 constraints of type <linear>
Presolving Time: 19.12

 time | node  | left  |LP iter|LP it/n| mem |mdpt |frac |vars |cons |cols |rows |cuts |confs|strbr|  dualbound   | primalbound  |  gap   
  135s|     1 |     0 |109024 |     - | 971M|   0 |2746 | 136k|  96k| 136k|  96k|   0 |  25 |   0 | 4.818778e+02 |      --      |    Inf 
  437s|     1 |     0 |245347 |     - |1064M|   0 |2833 | 136k|  96k| 136k|  96k|   5 |  25 |   0 | 4.821624e+02 |      --      |    Inf 
  470s|     1 |     0 |249581 |     - |1075M|   0 |2840 | 136k|  96k| 136k|  96k|   6 |  25 |   0 | 4.822815e+02 |      --      |    Inf 
  495s|     1 |     0 |250494 |     - |1087M|   0 |3006 | 136k|  96k| 136k|  96k|   9 |  25 |   0 | 4.822875e+02 |      --      |    Inf 
  518s|     1 |     0 |250495 |     - |1099M|   0 |3008 | 136k|  96k| 136k|  96k|  10 |  25 |   0 | 4.822876e+02 |      --      |    Inf 
  543s|     1 |     0 |251410 |     - |1109M|   0 |2821 | 136k|  96k| 136k|  96k|  13 |  25 |   0 | 4.822946e+02 |      --      |    Inf 
  566s|     1 |     0 |252030 |     - |1120M|   0 |2900 | 136k|  96k| 136k|  96k|  16 |  25 |   0 | 4.823100e+02 |      --      |    Inf 
  593s|     1 |     0 |253617 |     - |1133M|   0 |2923 | 136k|  96k| 136k|  96k|  21 |  25 |   0 | 4.823314e+02 |      --      |    Inf 
  619s|     1 |     0 |254884 |     - |1144M|   0 |3021 | 136k|  96k| 136k|  96k|  23 |  26 |   0 | 4.823475e+02 |      --      |    Inf 
  654s|     1 |     0 |260224 |     - |1154M|   0 |2853 | 136k|  96k| 136k|  96k|  25 |  28 |   0 | 4.824998e+02 |      --      |    Inf 
  687s|     1 |     0 |263941 |     - |1166M|   0 |2973 | 136k|  96k| 136k|  96k|  30 |  28 |   0 | 4.826503e+02 |      --      |    Inf 
  709s|     1 |     0 |265625 |     - |1177M|   0 |3074 | 136k|  96k| 136k|  96k|  34 |  28 |   0 | 4.826742e+02 |      --      |    Inf 
  729s|     1 |     0 |266049 |     - |1188M|   0 |3010 | 136k|  96k| 136k|  96k|  37 |  28 |   0 | 4.826792e+02 |      --      |    Inf 
  751s|     1 |     0 |267167 |     - |1199M|   0 |2980 | 136k|  96k| 136k|  96k|  40 |  28 |   0 | 4.826890e+02 |      --      |    Inf 
  768s|     1 |     0 |267172 |     - |1209M|   0 |2970 | 136k|  96k| 136k|  96k|  41 |  28 |   0 | 4.826890e+02 |      --      |    Inf 
 time | node  | left  |LP iter|LP it/n| mem |mdpt |frac |vars |cons |cols |rows |cuts |confs|strbr|  dualbound   | primalbound  |  gap   
  787s|     1 |     0 |267401 |     - |1221M|   0 |2967 | 136k|  96k| 136k|  96k|  42 |  28 |   0 | 4.826895e+02 |      --      |    Inf 
  831s|     1 |     0 |267577 |     - |1231M|   0 |2975 | 136k|  96k| 136k|  96k|  46 |  28 |   0 | 4.826897e+02 |      --      |    Inf 
  853s|     1 |     0 |267944 |     - |1241M|   0 |2934 | 136k|  96k| 136k|  96k|  49 |  30 |   0 | 4.826903e+02 |      --      |    Inf 
  875s|     1 |     0 |269431 |     - |1252M|   0 |2879 | 136k|  96k| 136k|  96k|  53 |  31 |   0 | 4.827564e+02 |      --      |    Inf 
  904s|     1 |     0 |273229 |     - |1263M|   0 |2895 | 136k|  96k| 136k|  96k|  56 |  31 |   0 | 4.829971e+02 |      --      |    Inf 
  930s|     1 |     0 |276183 |     - |1273M|   0 |2920 | 136k|  96k| 136k|  96k|  58 |  32 |   0 | 4.830504e+02 |      --      |    Inf 
SCIP nodes: 1 Estimation: -1
 1431s|     1 |     2 |447528 |     - |1280M|   0 |2920 | 136k|  96k| 136k|  96k|  58 |  32 |  21 | 4.832725e+02 |      --      |    Inf 
   (1456.6s) symmetry computation started: requiring (bin +, int -, cont -), (fixed: bin -, int +, cont -)
   (1457.3s) no symmetry present
SCIP nodes: 2 Estimation: -1
SCIP nodes: 4 Estimation: -1
SCIP nodes: 8 Estimation: -1
SCIP nodes: 16 Estimation: -1
SCIP nodes: 32 Estimation: -1
SCIP nodes: 64 Estimation: -1
SCIP nodes: 128 Estimation: -1
*5715s|   136 |   134 |  1388k|8241.7 |1819M|  55 |   - | 136k|  96k| 136k|  96k|  98 |  71 | 675 | 4.832725e+02 | 5.247615e+02 |   8.59%
b5715s|   137 |   130 |  1388k|8181.1 |1825M|  55 |   - | 136k|  96k| 136k|  96k|  98 |  71 | 675 | 4.832725e+02 | 5.227596e+02 |   8.17%

SCIP Status        : solving was interrupted [time limit reached]
Solving Time (sec) : 7200.02
Solving Nodes      : 190
Primal Bound       : +5.22759630000000e+02 (2 solutions)
Dual Bound         : +4.83384953714872e+02
Gap                : 8.15 %

SCIP> display statistics

SCIP Status        : solving was interrupted [time limit reached]
Total Time         :    7200.58
  solving          :    7200.02
  presolving       :      19.12 (included in solving)
  reading          :       0.56
  copying          :       1.17 (4 #copies) (minimal 0.28, maximal 0.30, average 0.29)
Original Problem   :
  Problem name     : stp3d
  Variables        : 204880 (204880 binary, 0 integer, 0 implicit integer, 0 continuous)
  Constraints      : 159488 initial, 159488 maximal
  Objective        : minimize, 75648 non-zeros (abs.min = 1.00001, abs.max = 1.00303)
Presolved Problem  :
  Problem name     : t_stp3d
  Variables        : 136042 (136042 binary, 0 integer, 0 implicit integer, 0 continuous)
  Constraints      : 96860 initial, 97101 maximal
  Objective        : minimize, 65250 non-zeros (abs.min = 5e-05, abs.max = 1.00302)
Presolvers         :   ExecTime  SetupTime  Calls  FixedVars   AggrVars   ChgTypes  ChgBounds   AddHoles    DelCons    AddCons   ChgSides   ChgCoefs
  boundshift       :       0.00       0.00      0          0          0          0          0          0          0          0          0          0
  convertinttobin  :       0.00       0.00      0          0          0          0          0          0          0          0          0          0
  domcol           :       0.11       0.00      1          0          0          0          0          0          0          0          0          0
  dualagg          :       0.00       0.00      0          0          0          0          0          0          0          0          0          0
  dualcomp         :       0.00       0.00      0          0          0          0          0          0          0          0          0          0
  dualinfer        :       0.00       0.00      0          0          0          0          0          0          0          0          0          0
  gateextraction   :       0.00       0.00      0          0          0          0          0          0          0          0          0          0
  implics          :       0.00       0.00      3          0          0          0          0          0          0          0          0          0
  inttobinary      :       0.00       0.00      0          0          0          0          0          0          0          0          0          0
  qpkktref         :       0.00       0.00      0          0          0          0          0          0          0          0          0          0
  redvub           :       0.00       0.00      0          0          0          0          0          0          0          0          0          0
  sparsify         :       0.53       0.00      1          0          0          0          0          0          0          0          0          0
  stuffing         :       0.00       0.00      0          0          0          0          0          0          0          0          0          0
  symbreak         :       0.00       0.00      0          0          0          0          0          0          0          0          0          0
  symmetry         :       0.00       0.00      0          0          0          0          0          0          0          0          0          0
  trivial          :       0.05       0.00      7        548          0          0          0          0          0          0          0          0
  tworowbnd        :       0.00       0.00      0          0          0          0          0          0          0          0          0          0
  dualfix          :       0.04       0.00      7       3469          0          0          0          0          0          0          0          0
  genvbounds       :       0.00       0.00      0          0          0          0          0          0          0          0          0          0
  orbitalfixing    :       0.00       0.00      0          0          0          0          0          0          0          0          0          0
  probing          :      16.16       0.01      1         26          0          0          0          0          0          0          0          0
  pseudoobj        :       0.00       0.00      0          0          0          0          0          0          0          0          0          0
  vbounds          :       0.12       0.00      1          7         10          0          0          0          0          0          0          0
  knapsack         :       0.00       0.00      0          0          0          0          0          0          0          0          0          0
  setppc           :       0.32       0.02      3          0         13          0          0          0         13          0          0          0
  linear           :       1.18       0.16     10      17347      47418          0      16470          0      62615          0          0          0
  logicor          :       0.00       0.00      0          0          0          0          0          0          0          0          0          0
  benders          :       0.00       0.00      0          0          0          0          0          0          0          0          0          0
  components       :       0.11       0.00      1          0          0          0          0          0          0          0          0          0
  root node        :          -          -      -        206          -          -        206          -          -          -          -          -
Constraints        :     Number  MaxNumber  #Separate #Propagate    #EnfoLP    #EnfoRelax  #EnfoPS    #Check   #ResProp    Cutoffs    DomReds       Cuts    Applied      Conss   Children
  benderslp        :          0          0          0          0        194          0          0         20          0          0          0          0          0          0          0
  integral         :          0          0          0          0        194          0          0         20          0          0       1772          0          0          4        374
  knapsack         :          0+         6          0      13691          0          0          0          0         10          3         63          0          0          0          0
  setppc           :      72864+     72905         21      27619          1          0          0         15      17766         29      83876          0          0          0          0
  linear           :      23996      23996         21      27590          1          0          0          1       3751         73      67392          0          0          0          0
  logicor          :          0+       213         21        347          0          0          0          0         14          4          8          0          0          0          0
  benders          :          0          0          0          0          1          0          0          2          0          0          0          0          0          0          0
  countsols        :          0          0          0          0          1          0          0          2          0          0          0          0          0          0          0
  components       :          0          0          0          0          0          0          0          0          0          0          0          0          0          0          0
Constraint Timings :  TotalTime  SetupTime   Separate  Propagate     EnfoLP     EnfoPS     EnfoRelax   Check    ResProp    SB-Prop
  benderslp        :       0.00       0.00       0.00       0.00       0.00       0.00       0.00       0.00       0.00       0.00
  integral         :    1869.89       0.00       0.00       0.00    1869.84       0.00       0.00       0.05       0.00       0.00
  knapsack         :       0.01       0.00       0.00       0.00       0.00       0.00       0.00       0.00       0.00       0.01
  setppc           :       3.08       0.02       0.14       2.40       0.00       0.00       0.00       0.02       0.03       0.47
  linear           :     102.44       0.16     101.19       0.85       0.00       0.00       0.00       0.00       0.00       0.24
  logicor          :       0.01       0.00       0.00       0.01       0.00       0.00       0.00       0.00       0.00       0.00
  benders          :       0.00       0.00       0.00       0.00       0.00       0.00       0.00       0.00       0.00       0.00
  countsols        :       0.00       0.00       0.00       0.00       0.00       0.00       0.00       0.00       0.00       0.00
  components       :       0.01       0.00       0.00       0.01       0.00       0.00       0.00       0.00       0.00       0.00
Propagators        : #Propagate   #ResProp    Cutoffs    DomReds
  dualfix          :          1          0          0          0
  genvbounds       :          0          0          0          0
  nlobbt           :          0          0          0          0
  obbt             :          0          0          0          0
  orbitalfixing    :          1          0          0          0
  probing          :          0          0          0          0
  pseudoobj        :       1168          0          0          0
  redcost          :        225          0          0      67456
  rootredcost      :          3          0          0          0
  vbounds          :      25624          0          0          0
Propagator Timings :  TotalTime  SetupTime   Presolve  Propagate    ResProp    SB-Prop
  dualfix          :       0.05       0.00       0.04       0.01       0.00       0.00
  genvbounds       :       0.00       0.00       0.00       0.00       0.00       0.00
  nlobbt           :       0.00       0.00       0.00       0.00       0.00       0.00
  obbt             :       0.00       0.00       0.00       0.00       0.00       0.00
  orbitalfixing    :       0.69       0.00       0.00       0.69       0.00       0.00
  probing          :      16.17       0.01      16.16       0.00       0.00       0.00
  pseudoobj        :       0.03       0.00       0.00       0.03       0.00       0.00
  redcost          :      18.20       0.00       0.00      18.20       0.00       0.00
  rootredcost      :       0.06       0.00       0.00       0.06       0.00       0.00
  vbounds          :       0.36       0.00       0.12       0.23       0.00       0.01
Conflict Analysis  :       Time      Calls    Success    DomReds  Conflicts   Literals    Reconvs ReconvLits   Dualrays   Nonzeros   LP Iters   (pool size: [10000,10000])
  propagation      :       0.01         52         51          -        195      356.6         32        4.0          -          -          -
  infeasible LP    :       0.10          7          7          -         23        8.4          4        3.0          7      381.4          0
  bound exceed. LP :       1.29          8          8          -        301      696.1         17        3.1          0        0.0        160
  strong branching :       0.00          0          0          -          0        0.0          0        0.0          -          -          0
  pseudo solution  :       0.00          0          0          -          0        0.0          0        0.0          -          -          -
  applied globally :       0.00          -          -          0        276      245.8          -          -          7          -          -
  applied locally  :          -          -          -          0          0        0.0          -          -          0          -          -
Separators         :   ExecTime  SetupTime      Calls    Cutoffs    DomReds       Cuts    Applied      Conss
  cut pool         :       0.04                   100          -          -        213          -          -    (maximal pool size: 366)
  aggregation      :       1.74       0.00         40          0          0          0          0          0
  cgmip            :       0.00       0.00          0          0          0          0          0          0
  clique           :     182.24       0.00         21          0          0          0          0          0
  closecuts        :       0.00       0.00          0          0          0          0          0          0
  cmir             :       0.00       0.00          0          0          0          0          0          0
  convexproj       :       0.00       0.00          0          0          0          0          0          0
  disjunctive      :       0.00       0.00          0          0          0          0          0          0
  eccuts           :       0.00       0.00          0          0          0          0          0          0
  flowcover        :       0.00       0.00          0          0          0          0          0          0
  gauge            :       0.00       0.00          0          0          0          0          0          0
  gomory           :      97.28       0.00         28          0          0          0         10          0
  impliedbounds    :       1.32       0.00         40          0          3          0          0          0
  intobj           :       0.00       0.00          0          0          0          0          0          0
  mcf              :       3.87       0.00          3          0          0          0          0          0
  oddcycle         :       0.00       0.00          0          0          0          0          0          0
  rapidlearning    :       0.00       0.00          0          0          0          0          0          0
  strongcg         :      79.61       0.00         20          0          0          0          0          0
  zerohalf         :       5.12       0.00         38          0          0          0         96          0
Pricers            :   ExecTime  SetupTime      Calls       Vars
  problem variables:       0.00          -          0          0
Branching Rules    :   ExecTime  SetupTime   BranchLP  BranchExt   BranchPS    Cutoffs    DomReds       Cuts      Conss   Children
  allfullstrong    :       0.00       0.00          0          0          0          0          0          0          0          0
  cloud            :       0.00       0.00          0          0          0          0          0          0          0          0
  distribution     :       0.00       0.00          0          0          0          0          0          0          0          0
  fullstrong       :       0.00       0.00          0          0          0          0          0          0          0          0
  inference        :       0.00       0.00          0          0          0          0          0          0          0          0
  leastinf         :       0.00       0.00          0          0          0          0          0          0          0          0
  lookahead        :       0.00       0.00          0          0          0          0          0          0          0          0
  mostinf          :       0.00       0.00          0          0          0          0          0          0          0          0
  multaggr         :       0.00       0.00          0          0          0          0          0          0          0          0
  nodereopt        :       0.00       0.00          0          0          0          0          0          0          0          0
  pscost           :       0.00       0.00          0          0          0          0          0          0          0          0
  random           :       0.00       0.00          0          0          0          0          0          0          0          0
  relpscost        :    1869.84       0.00        193          0          0          0       1772          0          4        374
Primal Heuristics  :   ExecTime  SetupTime      Calls      Found       Best
  LP solutions     :       0.02          -          -          1          1
  relax solutions  :       0.00          -          -          0          0
  pseudo solutions :       0.00          -          -          0          0
  strong branching :       0.00          -          -          0          0
  actconsdiving    :       0.00       0.00          0          0          0
  alns             :      57.15       0.00          3          0          0
  bound            :       0.00       0.00          0          0          0
  clique           :       0.66       0.00          1          0          0
  coefdiving       :      16.52       0.00          3          0          0
  completesol      :       0.00       0.00          0          0          0
  conflictdiving   :       0.00       0.00          0          0          0
  crossover        :       0.00       0.00          0          0          0
  dins             :       0.00       0.00          0          0          0
  distributiondivin:       1.29       0.00          3          0          0
  dualval          :       0.00       0.00          0          0          0
  farkasdiving     :     435.23       0.00          1          0          0
  feaspump         :     261.21       0.00          1          0          0
  fixandinfer      :       0.00       0.00          0          0          0
  fracdiving       :       5.13       0.00          3          0          0
  gins             :       0.00       0.00          0          0          0
  guideddiving     :       1.00       0.00          2          0          0
  indicator        :       0.00       0.00          0          0          0
  intdiving        :       0.00       0.00          0          0          0
  intshifting      :       0.00       0.00          0          0          0
  linesearchdiving :       5.46       0.00          2          0          0
  localbranching   :       0.00       0.00          0          0          0
  locks            :       0.07       0.00          1          0          0
  lpface           :       0.00       0.00          0          0          0
  mpec             :       0.00       0.00          0          0          0
  multistart       :       0.00       0.00          0          0          0
  mutation         :       0.00       0.00          0          0          0
  nlpdiving        :       0.00       0.00          0          0          0
  objpscostdiving  :     369.93       0.00          2          0          0
  octane           :       0.00       0.00          0          0          0
  ofins            :       0.00       0.00          0          0          0
  oneopt           :       0.08       0.00          1          1          1
  proximity        :       0.00       0.00          0          0          0
  pscostdiving     :     291.52       0.00          3          0          0
  randrounding     :       1.18       0.00         32          0          0
  rens             :       0.85       0.00          1          0          0
  reoptsols        :       0.00       0.00          0          0          0
  repair           :       0.00       0.00          0          0          0
  rins             :       0.00       0.00          0          0          0
  rootsoldiving    :     242.55       0.00          1          0          0
  rounding         :       0.76       0.00        164          0          0
  shiftandpropagate:       0.14       0.00          1          0          0
  shifting         :       3.42       0.00         60          0          0
  simplerounding   :       0.25       0.00        327          0          0
  subnlp           :       0.00       0.00          0          0          0
  trivial          :       0.27       0.00          2          0          0
  trivialnegation  :       0.00       0.00          0          0          0
  trysol           :       0.01       0.00          0          0          0
  twoopt           :       0.00       0.00          0          0          0
  undercover       :       0.00       0.00          0          0          0
  vbounds          :       0.12       0.00          1          0          0
  veclendiving     :       3.10       0.00          3          0          0
  zeroobj          :       0.00       0.00          0          0          0
  zirounding       :       0.51       0.00        187          0          0
  other solutions  :          -          -          -          0          -
Diving Statistics  :      Calls      Nodes   LP Iters Backtracks  Conflicts   MinDepth   MaxDepth   AvgDepth  RoundSols  NLeafSols  MinSolDpt  MaxSolDpt  AvgSolDpt
  actconsdiving    :          0          -          -          -          -          -          -          -          -          -          -          -          -
  coefdiving       :          3       2623       1698         15         53        549       1256      895.7          0          -          -          -          -
  conflictdiving   :          0          -          -          -          -          -          -          -          -          -          -          -          -
  distributiondivin:          3        293        189          5        124         95        168      125.7          0          -          -          -          -
  farkasdiving     :          1         62     171345          0          0         63         63       63.0          0          -          -          -          -
  fracdiving       :          3        864          0          7          7         62        641      315.3          0          -          -          -          -
  guideddiving     :          2        158          0          3          3        100        121      110.5          0          -          -          -          -
  linesearchdiving :          2        695        151          7        216        122        636      379.0          0          -          -          -          -
  pscostdiving     :          3       1068     107582          1         83        112        710      381.7          0          -          -          -          -
  veclendiving     :          3        187       1718         11         53         76         83       80.3          0          -          -          -          -
Neighborhoods      :      Calls  SetupTime  SolveTime SolveNodes       Sols       Best       Exp3  EpsGreedy        UCB TgtFixRate  Opt  Inf Node Stal  Sol  Usr Othr Actv
  rens             :          3       1.89      54.69        108          0          0    0.00000   -1.00000    0.40226      0.662    0    2    0    1    0    0    0    1
  rins             :          0       0.00       0.00          0          0          0    0.00000   -1.00000    0.06194      0.900    0    0    0    0    0    0    0    1
  mutation         :          0       0.00       0.00          0          0          0    0.00000   -1.00000    0.06194      0.900    0    0    0    0    0    0    0    1
  localbranching   :          0       0.00       0.00          0          0          0    0.00000   -1.00000    0.06194      0.900    0    0    0    0    0    0    0    1
  crossover        :          0       0.00       0.00          0          0          0    0.00000   -1.00000    0.06194      0.900    0    0    0    0    0    0    0    1
  proximity        :          0       0.00       0.00          0          0          0    0.00000   -1.00000    0.06194      0.900    0    0    0    0    0    0    0    1
  zeroobjective    :          0       0.00       0.00          0          0          0    0.00000   -1.00000    0.06194      0.900    0    0    0    0    0    0    0    1
  dins             :          0       0.00       0.00          0          0          0    0.00000   -1.00000    0.06194      0.900    0    0    0    0    0    0    0    1
LP                 :       Time      Calls Iterations  Iter/call   Iter/sec  Time-0-It Calls-0-It    ItLimit
  primal LP        :     262.75         11          0       0.00       0.00     262.75         11
  dual LP          :    2849.44        329    1196182    5133.83     419.80       1.45         96
  lex dual LP      :       0.00          0          0       0.00          -
  barrier LP       :       0.00          0          0       0.00          -       0.00          0
  resolve instable :       0.00          0          0       0.00          -
  diving/probing LP:    1603.23         98     580706    5925.57     362.21
  strong branching :    1857.27        865     784967     907.48     422.65          -          -       1530
    (at root node) :          -         21      18365     874.52          -
  conflict analysis:       0.60         16        160      10.00     266.67
B&B Tree           :
  number of runs   :          1
  nodes            :        190 (187 internal, 3 leaves)
  feasible leaves  :          1
  infeas. leaves   :          0
  objective leaves :          1
  nodes (total)    :        190 (187 internal, 3 leaves)
  nodes left       :        182
  max depth        :         55
  max depth (total):         55
  backtracks       :         15 (7.9%)
  early backtracks :          3 (20.0%)
  nodes exc. ref.  :        150 (78.9%)
  delayed cutoffs  :          0
  repropagations   :         36 (205 domain reductions, 0 cutoffs)
  avg switch length:       2.63
  switching time   :     236.88
Root Node          :
  First LP value   : +4.81877786205067e+02
  First LP Iters   :     109024 (957.36 Iter/sec)
  First LP Time    :     113.88
  Final Dual Bound : +4.83272458562931e+02
  Final Root Iters :     276183
  Root LP Estimate : +5.09674254496391e+02
Solution           :
  Solutions found  :          2 (2 improvements)
  First Solution   : +5.24761510000000e+02   (in run 1, after 136 nodes, 5714.70 seconds, depth 55, found by <relaxation>)
  Gap First Sol.   :       8.59 %
  Gap Last Sol.    :       8.17 %
  Primal Bound     : +5.22759630000000e+02   (in run 1, after 137 nodes, 5714.76 seconds, depth 31, found by <oneopt>)
  Dual Bound       : +4.83384953714872e+02
  Gap              :       8.15 %
  Avg. Gap         :      80.93 % (582675.53 primal-dual integral)
  Tree Data        : 375 nodes (193 visited, 187 inner, 6 leaves, 182 open), progress: 0.0000
Tree Estimation    :       estim       value       trend  resolution      smooth
  wbe              : 1647633283895           -           -           -           -
  tree profile     :          -1           -           -           -           -
  gap              :          11     0.92468     0.38756           1          11
  progress         :         386     0.00000     0.00000           1         352
  leaf-frequency   :          40     0.02926     0.03226           1          35
  ssg              :          72     0.99741    -0.03263           1          69
  open-nodes       :         386   177.00000    60.66141           1         352


SCIP> checksol

check best solution
solution is feasible in original problem
Violation          :    absolute    relative
  bounds           : 6.66134e-16 6.66134e-16
  integrality      : 6.66134e-16           -
  LP rows          : 6.66134e-16 6.66134e-16
  constraints      : 6.66134e-16 6.66134e-16

SCIP> write sol /local/tmp/bzfhende-tmpdir/bzfhende.MMMc.483_stp3d.scip.M640.enabble_treeprofile.sol

written solution information to file </local/tmp/bzfhende-tmpdir/bzfhende.MMMc.483_stp3d.scip.M640.enable_treeprofile.sol>

SCIP> quit

Disabling tree profile data collection
Read MPS: 1
MIP has 204880 vars and 159488 constraints
Read SOL: 1
Objective value computed by solver: 522.7596299999999

Integrality tolerance: 1/10000
Linear tolerance: 1/10000
Objective tolerance: 1/10000

Check SOL: Integrality 1 Constraints 1 Objective 1
Maximum violations: Integrality 0 Constraints 0 Objective 0
@04 1566532860
-----------------------------
Fr 23. Aug 06:01:00 CEST 2019
-----------------------------

=ready=
